[ti. 04. april 15:01:34 +0200 2023]  ./input/alternate_g_np/50-1-2.gcc
Set parameter Username
Academic license - for non-commercial use only - expires 2024-03-28
Set parameter TimeLimit to value 1800
Set parameter PreCrush to value 1
Set parameter LazyConstraints to value 1
Gurobi Optimizer version 10.0.1 build v10.0.1rc0 (linux64)

CPU model: AMD Ryzen 9 5950X 16-Core Processor, instruction set [SSE2|AVX|AVX2]
Thread count: 16 physical cores, 32 logical processors, using up to 32 threads

Optimize a model with 52 rows, 150 columns and 350 nonzeros
Model fingerprint: 0x70ec4b8f
Variable types: 0 continuous, 150 integer (150 binary)
Coefficient statistics:
  Matrix range     [1e+00, 1e+00]
  Objective range  [4e+00, 1e+02]
  Bounds range     [1e+00, 1e+00]
  RHS range        [1e+00, 1e+00]
Presolve time: 0.00s
Presolved: 52 rows, 150 columns, 350 nonzeros
Variable types: 0 continuous, 150 integer (150 binary)

Root relaxation: objective 2.764000e+03, 2 iterations, 0.00 seconds (0.00 work units)

    Nodes    |    Current Node    |     Objective Bounds      |     Work
 Expl Unexpl |  Obj  Depth IntInf | Incumbent    BestBd   Gap | It/Node Time

     0     0 2764.00000    0    2          - 2764.00000      -     -    0s
     0     0 2764.00000    0    8          - 2764.00000      -     -    0s
     0     0 2764.00000    0    -          - 2764.00000      -     -    0s
     0     0 2764.00000    0    -          - 2764.00000      -     -    0s
     0     0 2764.00000    0    -          - 2764.00000      -     -    0s
     0     0 2764.00000    0    -          - 2764.00000      -     -    0s
     0     0 2764.00000    0   12          - 2764.00000      -     -    0s
     0     0 2764.00000    0    2          - 2764.00000      -     -    0s
     0     0 2764.00000    0    -          - 2764.00000      -     -    0s
     0     0 2764.00000    0    -          - 2764.00000      -     -    0s
     0     0 2764.00000    0   14          - 2764.00000      -     -    0s
     0     2 2764.00000    0    8          - 2764.00000      -     -    0s
*31664  9788              28     265.0000000 1960.00000   640%   7.3    2s
*33538 10172              23     282.0000000 1933.00000   585%   7.4    2s
*43062 11185              35     289.0000000 1866.00000   546%   9.0    2s
H44570 11388                     291.0000000 1851.00000   536%   9.4    3s
H51934  7786                    1585.0000973 1816.00000  14.6%   9.8    3s
 78224  7352     cutoff   98      1585.00010 1690.50000  6.66%  10.0    5s

Cutting planes:
  User: 22
  Lazy constraints: 1684

Explored 151656 nodes (1251087 simplex iterations) in 8.70 seconds (2.43 work units)
Thread count was 32 (of 32 available processors)

Solution count 5: 1585 291 289 ... 265

Optimal solution found (tolerance 1.00e-04)
Best objective 1.585000097311e+03, best bound 1.585000097311e+03, gap 0.0000%

User-callback calls 305635, time in user-callback 1.86 sec
Minimal separator inequalities added: 100911
Indegree inequalities added: 0
WRONG SOLUTION
[ti. 04. april 15:01:42 +0200 2023]  done

